NAME : problems/40-tsp/instance-3.tsp
COMMENT : No Comment
TYPE : TSP
DIMENSION: 40
EDGE_WEIGHT_TYPE : EUC_2D
NODE_COORD_SECTION
1 83 668 
2 1183 9198 
3 7656 2741 
4 8237 1382 
5 5421 7186 
6 6353 6038 
7 3900 3931 
8 6066 126 
9 399 3440 
10 5030 3279 
11 1842 4820 
12 9430 1364 
13 7803 5940 
14 201 8756 
15 8941 430 
16 1205 9500 
17 1093 9223 
18 5105 1195 
19 8849 6305 
20 7518 7786 
21 3715 1680 
22 8583 3510 
23 3672 244 
24 5916 9020 
25 3317 2717 
26 8265 380 
27 216 6916 
28 7690 3054 
29 5219 4860 
30 6502 8568 
31 5894 6679 
32 9490 3740 
33 4435 2721 
34 3746 7150 
35 2056 1562 
36 5992 6120 
37 4088 909 
38 8911 7869 
39 738 6616 
40 2627 8132 
EOF
